1,44903,46097,45801,40524,38224,46155,49733,41810,33717,6290,28251,43626,37202,8210,1800,49421,19871,45332,36563,3117,
2,44903,46097,45801,40524,38224,46155,49733,41810,33717,6290,28251,43626,37202,8210,1800,49421,19871,45332,414,8491,
3,44903,46097,45801,40524,38224,46155,49733,41810,33717,6290,28251,43626,37202,8210,1800,49421,19871,45332,4310,4688,
4,44903,46097,45801,40524,38224,46155,49733,41810,33717,6290,28251,43626,37202,8210,1800,49421,19871,45332,27325,348,
5,44903,46097,45801,40524,38224,46155,49733,41810,33717,6290,28251,43626,37202,8210,1800,49421,19871,45332,27520,34774,
6,44903,46097,45801,40524,38224,46155,49733,41810,33717,6290,28251,43626,37202,8210,1800,49421,19871,45332,506,1192,
7,44903,46097,45801,40524,38224,46155,49733,41810,33717,6290,28251,43626,37202,8210,1800,49421,19871,45332,1583,2173,
8,44903,46097,45801,40524,38224,46155,49733,41810,33717,6290,28251,43626,37202,8210,1800,49421,19871,45332,45666,41348,
9,44903,46097,45801,40524,38224,46155,49733,41810,33717,6290,28251,43626,37202,8210,1800,49421,19871,45332,36859,20528,
10,44903,46097,45801,40524,38224,46155,49733,41810,33717,6290,28251,43626,37202,8210,1800,49421,19871,45332,4382,20577,
11,44903,46097,45801,40524,38224,46155,49733,41810,33717,6290,28251,43626,37202,8210,1800,49421,19871,45332,781,9658,
12,44903,46097,45801,40524,38224,46155,49733,41810,33717,6290,28251,43626,37202,8210,1800,49421,19871,45332,3238,16057,
13,44903,46097,45801,40524,38224,46155,49733,41810,33717,6290,28251,43626,37202,8210,1800,49421,19871,45332,22911,35564,
14,44903,46097,45801,40524,38224,46155,49733,41810,33717,6290,28251,43626,37202,8210,1800,49421,19871,45332,10787,3069,
15,44903,46097,45801,40524,38224,46155,49733,41810,33717,6290,28251,43626,37202,8210,1800,49421,19871,45332,1981,3238,
16,44903,46097,45801,40524,38224,46155,49733,41810,33717,6290,28251,43626,37202,8210,1800,49421,19871,45332,3950,31615,
17,44903,46097,45801,40524,38224,46155,49733,41810,33717,6290,28251,43626,37202,8210,1800,49421,19871,45332,10374,10863,
18,44903,46097,45801,40524,38224,46155,49733,41810,33717,6290,28251,43626,37202,8210,1800,49421,19871,45332,1739,26583,
19,44903,46097,45801,40524,38224,46155,49733,41810,33717,6290,28251,43626,37202,8210,1800,49421,19871,45332,1951,27345,
20,44903,46097,45801,40524,38224,46155,49733,41810,33717,6290,28251,43626,37202,8210,1800,49421,19871,45332,39614,967,
21,44903,46097,45801,40524,38224,46155,49733,41810,33717,6290,28251,43626,37202,8210,1800,49421,19871,45332,14838,24058,
22,44903,46097,45801,40524,38224,46155,49733,41810,33717,6290,28251,43626,37202,8210,1800,49421,19871,45332,17067,7635,
23,44903,46097,45801,40524,38224,46155,49733,41810,33717,6290,28251,43626,37202,8210,1800,49421,19871,45332,18977,9400,
24,44903,46097,45801,40524,38224,46155,49733,41810,33717,6290,28251,43626,37202,8210,1800,49421,19871,45332,16430,2206,
25,44903,46097,45801,40524,38224,46155,49733,41810,33717,6290,28251,43626,37202,8210,1800,49421,19871,45332,29926,17033,
26,44903,46097,45801,40524,38224,46155,49733,41810,33717,6290,28251,43626,37202,8210,1800,49421,19871,45332,29994,871,
27,44903,46097,45801,40524,38224,46155,49733,41810,33717,6290,28251,43626,37202,8210,1800,49421,19871,45332,36167,1607,
28,44903,46097,45801,40524,38224,46155,49733,41810,33717,6290,28251,43626,37202,8210,1800,49421,19871,45332,23865,1230,
29,44903,46097,45801,40524,38224,46155,49733,41810,33717,6290,28251,43626,37202,8210,1800,49421,19871,45332,16574,23571,
30,44903,46097,45801,40524,38224,46155,49733,41810,33717,6290,28251,43626,37202,8210,1800,49421,19871,45332,41752,5228,
31,44903,46097,45801,40524,38224,46155,49733,41810,33717,6290,28251,43626,37202,8210,1800,49421,19871,45332,14051,33702,
32,44903,46097,45801,40524,38224,46155,49733,41810,33717,6290,28251,43626,37202,8210,1800,49421,19871,45332,13061,16190,
33,44903,46097,45801,40524,38224,46155,49733,41810,33717,6290,28251,43626,37202,8210,1800,49421,19871,45332,25298,1273,
34,44903,46097,45801,40524,38224,46155,49733,41810,33717,6290,28251,43626,37202,8210,1800,49421,19871,45332,16982,5760,
35,44903,46097,45801,40524,38224,46155,49733,41810,33717,6290,28251,43626,37202,8210,1800,49421,19871,45332,12111,11131,
36,44903,46097,45801,40524,38224,46155,49733,41810,33717,6290,28251,43626,37202,8210,1800,49421,19871,45332,24048,513,
37,44903,46097,45801,40524,38224,46155,49733,41810,33717,6290,28251,43626,37202,8210,1800,49421,19871,45332,16723,23788,
38,44903,46097,45801,40524,38224,46155,49733,41810,33717,6290,28251,43626,37202,8210,1800,49421,19871,45332,13765,311,
39,44903,46097,45801,40524,38224,46155,49733,41810,33717,6290,28251,43626,37202,8210,1800,49421,19871,45332,15001,3573,
40,44903,46097,45801,40524,38224,46155,49733,41810,33717,6290,28251,43626,37202,8210,1800,49421,19871,45332,15750,780,
41,44903,46097,45801,40524,38224,46155,49733,41810,33717,6290,28251,43626,37202,8210,1800,49421,19871,45332,13477,13768,
42,44903,46097,45801,40524,38224,46155,49733,41810,33717,6290,28251,43626,37202,8210,1800,49421,19871,45332,39258,3008,
43,44903,46097,45801,40524,38224,46155,49733,41810,33717,6290,28251,43626,37202,8210,1800,49421,19871,45332,25998,24902,
44,44903,46097,45801,40524,38224,46155,49733,41810,33717,6290,28251,43626,37202,8210,1800,49421,19871,45332,34141,37329,
45,44903,46097,45801,40524,38224,46155,49733,41810,33717,6290,28251,43626,37202,8210,1800,49421,19871,45332,33568,22955,
46,44903,46097,45801,40524,38224,46155,49733,41810,33717,6290,28251,43626,37202,8210,1800,49421,19871,45332,25658,3824,
47,44903,46097,45801,40524,38224,46155,49733,41810,33717,6290,28251,43626,37202,8210,1800,49421,19871,45332,15394,2196,
48,44903,46097,45801,40524,38224,46155,49733,41810,33717,6290,28251,43626,37202,8210,1800,49421,19871,45332,23420,18599,
49,44903,46097,45801,40524,38224,46155,49733,41810,33717,6290,28251,43626,37202,8210,1800,49421,19871,45332,14458,30626,
50,44903,46097,45801,40524,38224,46155,49733,41810,33717,6290,28251,43626,37202,8210,1800,49421,19871,45332,17432,7784,
51,44903,46097,45801,40524,38224,46155,49733,41810,33717,6290,28251,43626,37202,8210,1800,49421,19871,45332,30364,17097,
52,44903,46097,45801,40524,38224,46155,49733,41810,33717,6290,28251,43626,37202,8210,1800,49421,19871,45332,10315,16115,
53,44903,46097,45801,40524,38224,46155,49733,41810,33717,6290,28251,43626,37202,8210,1800,49421,19871,45332,38404,231,
54,44903,46097,45801,40524,38224,46155,49733,41810,33717,6290,28251,43626,37202,8210,1800,49421,19871,45332,11032,7111,
55,44903,46097,45801,40524,38224,46155,49733,41810,33717,6290,28251,43626,37202,8210,1800,49421,19871,45332,11032,3229,
56,44903,46097,45801,40524,38224,46155,49733,41810,33717,6290,28251,43626,37202,8210,1800,49421,19871,45332,43406,22779,
57,44903,46097,45801,40524,38224,46155,49733,41810,33717,6290,28251,43626,37202,8210,1800,49421,19871,45332,14006,27707,
58,44903,46097,45801,40524,38224,46155,49733,41810,33717,6290,28251,43626,37202,8210,1800,49421,19871,45332,26911,2337,
59,44903,46097,45801,40524,38224,46155,49733,41810,33717,6290,28251,43626,37202,8210,1800,49421,19871,45332,26173,9795,
60,44903,46097,45801,40524,38224,46155,49733,41810,33717,6290,28251,43626,37202,8210,1800,49421,19871,45332,29098,958,
61,44903,46097,45801,40524,38224,46155,49733,41810,33717,6290,28251,43626,37202,8210,1800,49421,19871,45332,16792,1475,
62,44903,46097,45801,40524,38224,46155,49733,41810,33717,6290,28251,43626,37202,8210,1800,49421,19871,45332,32847,3673,
63,44903,46097,45801,40524,38224,46155,49733,41810,33717,6290,28251,43626,37202,8210,1800,49421,19871,45332,32782,16357,
64,44903,46097,45801,40524,38224,46155,49733,41810,33717,6290,28251,43626,37202,8210,1800,49421,19871,45332,15383,12302,
65,44903,46097,45801,40524,38224,46155,49733,41810,33717,6290,28251,43626,37202,8210,1800,49421,19871,45332,18460,1233,
66,44903,46097,45801,40524,38224,46155,49733,41810,33717,6290,28251,43626,37202,8210,1800,49421,19871,45332,23494,783,
67,44903,46097,45801,40524,38224,46155,49733,41810,33717,6290,28251,43626,37202,8210,1800,49421,19871,45332,23841,783,
68,44903,46097,45801,40524,38224,46155,49733,41810,33717,6290,28251,43626,37202,8210,1800,49421,19871,45332,37722,9801,
69,44903,46097,45801,40524,38224,46155,49733,41810,33717,6290,28251,43626,37202,8210,1800,49421,19871,45332,21405,33538,
70,44903,46097,45801,40524,38224,46155,49733,41810,33717,6290,28251,43626,37202,8210,1800,49421,19871,45332,19463,489,
71,44903,46097,45801,40524,38224,46155,49733,41810,33717,6290,28251,43626,37202,8210,1800,49421,19871,45332,28644,493,
72,44903,46097,45801,40524,38224,46155,49733,41810,33717,6290,28251,43626,37202,8210,1800,49421,19871,45332,29694,24946,
73,44903,46097,45801,40524,38224,46155,49733,41810,33717,6290,28251,43626,37202,8210,1800,49421,19871,45332,13795,18386,
74,44903,46097,45801,40524,38224,46155,49733,41810,33717,6290,28251,43626,37202,8210,1800,49421,19871,45332,10795,4987,
75,44903,46097,45801,40524,38224,46155,49733,41810,33717,6290,28251,43626,37202,8210,1800,49421,19871,45332,10198,18501,
76,44903,46097,45801,40524,38224,46155,49733,41810,33717,6290,28251,43626,37202,8210,1800,49421,19871,45332,14729,6768,
77,44903,46097,45801,40524,38224,46155,49733,41810,33717,6290,28251,43626,37202,8210,1800,49421,19871,45332,14570,5472,
78,44903,46097,45801,40524,38224,46155,49733,41810,33717,6290,28251,43626,37202,8210,1800,49421,19871,45332,20938,40983,
79,44903,46097,45801,40524,38224,46155,49733,41810,33717,6290,28251,43626,37202,8210,1800,49421,19871,45332,31790,3411,
80,44903,46097,45801,40524,38224,46155,49733,41810,33717,6290,28251,43626,37202,8210,1800,49421,19871,45332,52272,14284,
81,44903,46097,45801,40524,38224,46155,49733,41810,33717,6290,28251,43626,37202,8210,1800,49421,19871,45332,52439,14205,
82,44903,46097,45801,40524,38224,46155,49733,41810,33717,6290,28251,43626,37202,8210,1800,49421,19871,45332,38032,18946,
83,44903,46097,45801,40524,38224,46155,49733,41810,33717,6290,28251,43626,37202,8210,1800,49421,19871,45332,13225,833,
84,44903,46097,45801,40524,38224,46155,49733,41810,33717,6290,28251,43626,37202,8210,1800,49421,19871,45332,41215,4183,
85,44903,46097,45801,40524,38224,46155,49733,41810,33717,6290,28251,43626,37202,8210,1800,49421,19871,45332,30135,2908,
86,44903,46097,45801,40524,38224,46155,49733,41810,33717,6290,28251,43626,37202,8210,1800,49421,19871,45332,24012,4894,
87,44903,46097,45801,40524,38224,46155,49733,41810,33717,6290,28251,43626,37202,8210,1800,49421,19871,45332,19512,43647,
88,44903,46097,45801,40524,38224,46155,49733,41810,33717,6290,28251,43626,37202,8210,1800,49421,19871,45332,13257,31246,
89,44903,46097,45801,40524,38224,46155,49733,41810,33717,6290,28251,43626,37202,8210,1800,49421,19871,45332,17285,5414,
90,44903,46097,45801,40524,38224,46155,49733,41810,33717,6290,28251,43626,37202,8210,1800,49421,19871,45332,47137,27105,
91,44903,46097,45801,40524,38224,46155,49733,41810,33717,6290,28251,43626,37202,8210,1800,49421,19871,45332,16058,29439,
92,44903,46097,45801,40524,38224,46155,49733,41810,33717,6290,28251,43626,37202,8210,1800,49421,19871,45332,22904,15684,
93,44903,46097,45801,40524,38224,46155,49733,41810,33717,6290,28251,43626,37202,8210,1800,49421,19871,45332,12854,23851,
94,44903,46097,45801,40524,38224,46155,49733,41810,33717,6290,28251,43626,37202,8210,1800,49421,19871,45332,26801,28499,
95,44903,46097,45801,40524,38224,46155,49733,41810,33717,6290,28251,43626,37202,8210,1800,49421,19871,45332,12761,6929,
96,44903,46097,45801,40524,38224,46155,49733,41810,33717,6290,28251,43626,37202,8210,1800,49421,19871,45332,30790,9791,
97,44903,46097,45801,40524,38224,46155,49733,41810,33717,6290,28251,43626,37202,8210,1800,49421,19871,45332,13587,12272,
98,44903,46097,45801,40524,38224,46155,49733,41810,33717,6290,28251,43626,37202,8210,1800,49421,19871,45332,11509,1775,
99,44903,46097,45801,40524,38224,46155,49733,41810,33717,6290,28251,43626,37202,8210,1800,49421,19871,45332,20362,46079,
100,44903,46097,45801,40524,38224,46155,49733,41810,33717,6290,28251,43626,37202,8210,1800,49421,19871,45332,32455,3067,
